c *********************************
c * Circuit generated by BenCGen
c *
c * RippleCarryAdder_23_23_23_InOutT
c *
c * Ports with 1 gate(s): 1
c * Ports with 2 gate(s): 116
c * Total gates: 117
c *********************************
p cnf 163 396
1 72 0
-1 -72 0
1 -71 0
72 -71 0
-1 -72 71 0
1 24 -74 0
-1 24 74 0
1 -24 74 0
-1 -24 -74 0
74 71 -47 0
-74 71 47 0
74 -71 47 0
-74 -71 -47 0
71 -75 0
74 -75 0
-71 -74 75 0
24 -76 0
1 -76 0
-24 -1 76 0
-75 73 0
-76 73 0
75 76 -73 0
2 25 -78 0
-2 25 78 0
2 -25 78 0
-2 -25 -78 0
78 73 -48 0
-78 73 48 0
78 -73 48 0
-78 -73 -48 0
73 -79 0
78 -79 0
-73 -78 79 0
25 -80 0
2 -80 0
-25 -2 80 0
-79 77 0
-80 77 0
79 80 -77 0
3 26 -82 0
-3 26 82 0
3 -26 82 0
-3 -26 -82 0
82 77 -49 0
-82 77 49 0
82 -77 49 0
-82 -77 -49 0
77 -83 0
82 -83 0
-77 -82 83 0
26 -84 0
3 -84 0
-26 -3 84 0
-83 81 0
-84 81 0
83 84 -81 0
4 27 -86 0
-4 27 86 0
4 -27 86 0
-4 -27 -86 0
86 81 -50 0
-86 81 50 0
86 -81 50 0
-86 -81 -50 0
81 -87 0
86 -87 0
-81 -86 87 0
27 -88 0
4 -88 0
-27 -4 88 0
-87 85 0
-88 85 0
87 88 -85 0
5 28 -90 0
-5 28 90 0
5 -28 90 0
-5 -28 -90 0
90 85 -51 0
-90 85 51 0
90 -85 51 0
-90 -85 -51 0
85 -91 0
90 -91 0
-85 -90 91 0
28 -92 0
5 -92 0
-28 -5 92 0
-91 89 0
-92 89 0
91 92 -89 0
6 29 -94 0
-6 29 94 0
6 -29 94 0
-6 -29 -94 0
94 89 -52 0
-94 89 52 0
94 -89 52 0
-94 -89 -52 0
89 -95 0
94 -95 0
-89 -94 95 0
29 -96 0
6 -96 0
-29 -6 96 0
-95 93 0
-96 93 0
95 96 -93 0
7 30 -98 0
-7 30 98 0
7 -30 98 0
-7 -30 -98 0
98 93 -53 0
-98 93 53 0
98 -93 53 0
-98 -93 -53 0
93 -99 0
98 -99 0
-93 -98 99 0
30 -100 0
7 -100 0
-30 -7 100 0
-99 97 0
-100 97 0
99 100 -97 0
8 31 -102 0
-8 31 102 0
8 -31 102 0
-8 -31 -102 0
102 97 -54 0
-102 97 54 0
102 -97 54 0
-102 -97 -54 0
97 -103 0
102 -103 0
-97 -102 103 0
31 -104 0
8 -104 0
-31 -8 104 0
-103 101 0
-104 101 0
103 104 -101 0
9 32 -106 0
-9 32 106 0
9 -32 106 0
-9 -32 -106 0
106 101 -55 0
-106 101 55 0
106 -101 55 0
-106 -101 -55 0
101 -107 0
106 -107 0
-101 -106 107 0
32 -108 0
9 -108 0
-32 -9 108 0
-107 105 0
-108 105 0
107 108 -105 0
10 33 -110 0
-10 33 110 0
10 -33 110 0
-10 -33 -110 0
110 105 -56 0
-110 105 56 0
110 -105 56 0
-110 -105 -56 0
105 -111 0
110 -111 0
-105 -110 111 0
33 -112 0
10 -112 0
-33 -10 112 0
-111 109 0
-112 109 0
111 112 -109 0
11 34 -114 0
-11 34 114 0
11 -34 114 0
-11 -34 -114 0
114 109 -57 0
-114 109 57 0
114 -109 57 0
-114 -109 -57 0
109 -115 0
114 -115 0
-109 -114 115 0
34 -116 0
11 -116 0
-34 -11 116 0
-115 113 0
-116 113 0
115 116 -113 0
12 35 -118 0
-12 35 118 0
12 -35 118 0
-12 -35 -118 0
118 113 -58 0
-118 113 58 0
118 -113 58 0
-118 -113 -58 0
113 -119 0
118 -119 0
-113 -118 119 0
35 -120 0
12 -120 0
-35 -12 120 0
-119 117 0
-120 117 0
119 120 -117 0
13 36 -122 0
-13 36 122 0
13 -36 122 0
-13 -36 -122 0
122 117 -59 0
-122 117 59 0
122 -117 59 0
-122 -117 -59 0
117 -123 0
122 -123 0
-117 -122 123 0
36 -124 0
13 -124 0
-36 -13 124 0
-123 121 0
-124 121 0
123 124 -121 0
14 37 -126 0
-14 37 126 0
14 -37 126 0
-14 -37 -126 0
126 121 -60 0
-126 121 60 0
126 -121 60 0
-126 -121 -60 0
121 -127 0
126 -127 0
-121 -126 127 0
37 -128 0
14 -128 0
-37 -14 128 0
-127 125 0
-128 125 0
127 128 -125 0
15 38 -130 0
-15 38 130 0
15 -38 130 0
-15 -38 -130 0
130 125 -61 0
-130 125 61 0
130 -125 61 0
-130 -125 -61 0
125 -131 0
130 -131 0
-125 -130 131 0
38 -132 0
15 -132 0
-38 -15 132 0
-131 129 0
-132 129 0
131 132 -129 0
16 39 -134 0
-16 39 134 0
16 -39 134 0
-16 -39 -134 0
134 129 -62 0
-134 129 62 0
134 -129 62 0
-134 -129 -62 0
129 -135 0
134 -135 0
-129 -134 135 0
39 -136 0
16 -136 0
-39 -16 136 0
-135 133 0
-136 133 0
135 136 -133 0
17 40 -138 0
-17 40 138 0
17 -40 138 0
-17 -40 -138 0
138 133 -63 0
-138 133 63 0
138 -133 63 0
-138 -133 -63 0
133 -139 0
138 -139 0
-133 -138 139 0
40 -140 0
17 -140 0
-40 -17 140 0
-139 137 0
-140 137 0
139 140 -137 0
18 41 -142 0
-18 41 142 0
18 -41 142 0
-18 -41 -142 0
142 137 -64 0
-142 137 64 0
142 -137 64 0
-142 -137 -64 0
137 -143 0
142 -143 0
-137 -142 143 0
41 -144 0
18 -144 0
-41 -18 144 0
-143 141 0
-144 141 0
143 144 -141 0
19 42 -146 0
-19 42 146 0
19 -42 146 0
-19 -42 -146 0
146 141 -65 0
-146 141 65 0
146 -141 65 0
-146 -141 -65 0
141 -147 0
146 -147 0
-141 -146 147 0
42 -148 0
19 -148 0
-42 -19 148 0
-147 145 0
-148 145 0
147 148 -145 0
20 43 -150 0
-20 43 150 0
20 -43 150 0
-20 -43 -150 0
150 145 -66 0
-150 145 66 0
150 -145 66 0
-150 -145 -66 0
145 -151 0
150 -151 0
-145 -150 151 0
43 -152 0
20 -152 0
-43 -20 152 0
-151 149 0
-152 149 0
151 152 -149 0
21 44 -154 0
-21 44 154 0
21 -44 154 0
-21 -44 -154 0
154 149 -67 0
-154 149 67 0
154 -149 67 0
-154 -149 -67 0
149 -155 0
154 -155 0
-149 -154 155 0
44 -156 0
21 -156 0
-44 -21 156 0
-155 153 0
-156 153 0
155 156 -153 0
22 45 -158 0
-22 45 158 0
22 -45 158 0
-22 -45 -158 0
158 153 -68 0
-158 153 68 0
158 -153 68 0
-158 -153 -68 0
153 -159 0
158 -159 0
-153 -158 159 0
45 -160 0
22 -160 0
-45 -22 160 0
-159 157 0
-160 157 0
159 160 -157 0
23 46 -161 0
-23 46 161 0
23 -46 161 0
-23 -46 -161 0
161 157 -69 0
-161 157 69 0
161 -157 69 0
-161 -157 -69 0
157 -162 0
161 -162 0
-157 -161 162 0
46 -163 0
23 -163 0
-46 -23 163 0
-162 70 0
-163 70 0
162 163 -70 0
